21° run output:
{
    "Function": "euclidB500.tsp",
    "Problem dimension": [
        284,
        244,
        109,
        261,
        183,
        102,
        239,
        161,
        336,
        176,
        146,
        47,
        448,
        62,
        395,
        120,
        321,
        365,
        28,
        190,
        374,
        217,
        35,
        90,
        253,
        232,
        230,
        423,
        235,
        79,
        375,
        492,
        38,
        353,
        212,
        101,
        142,
        21,
        276,
        74,
        99,
        209,
        23,
        447,
        312,
        126,
        474,
        66,
        341,
        29,
        221,
        295,
        171,
        51,
        406,
        307,
        59,
        6,
        380,
        404,
        334,
        429,
        187,
        333,
        188,
        197,
        293,
        289,
        275,
        327,
        136,
        224,
        178,
        157,
        489,
        250,
        213,
        352,
        140,
        164,
        203,
        435,
        68,
        97,
        317,
        174,
        182,
        80,
        282,
        89,
        219,
        131,
        44,
        460,
        83,
        75,
        251,
        100,
        179,
        427,
        7,
        286,
        46,
        283,
        153,
        218,
        55,
        368,
        479,
        112,
        30,
        177,
        478,
        206,
        285,
        485,
        454,
        163,
        246,
        5,
        459,
        86,
        354,
        60,
        457,
        93,
        274,
        373,
        343,
        8,
        403,
        484,
        363,
        420,
        227,
        73,
        228,
        138,
        139,
        229,
        64,
        442,
        40,
        494,
        1,
        123,
        350,
        223,
        441,
        137,
        85,
        471,
        328,
        461,
        92,
        431,
        443,
        356,
        181,
        225,
        233,
        98,
        15,
        11,
        388,
        458,
        128,
        400,
        436,
        115,
        243,
        41,
        82,
        372,
        70,
        42,
        10,
        413,
        147,
        72,
        385,
        141,
        204,
        248,
        91,
        194,
        462,
        65,
        49,
        71,
        497,
        143,
        418,
        490,
        31,
        477,
        94,
        366,
        362,
        355,
        193,
        464,
        311,
        338,
        476,
        337,
        495,
        210,
        56,
        22,
        32,
        27,
        280,
        298,
        14,
        358,
        18,
        125,
        381,
        166,
        491,
        234,
        119,
        306,
        162,
        9,
        265,
        313,
        389,
        238,
        169,
        211,
        361,
        61,
        58,
        301,
        249,
        237,
        262,
        173,
        325,
        326,
        318,
        135,
        323,
        50,
        205,
        106,
        290,
        26,
        3,
        196,
        145,
        24,
        455,
        269,
        87,
        348,
        222,
        340,
        407,
        433,
        377,
        466,
        175,
        278,
        195,
        346,
        189,
        130,
        168,
        401,
        310,
        240,
        473,
        104,
        202,
        496,
        63,
        292,
        154,
        367,
        52,
        371,
        419,
        424,
        359,
        36,
        409,
        335,
        208,
        499,
        304,
        480,
        438,
        277,
        159,
        329,
        279,
        214,
        268,
        487,
        39,
        48,
        383,
        416,
        231,
        118,
        414,
        468,
        349,
        452,
        425,
        192,
        402,
        255,
        69,
        486,
        122,
        88,
        257,
        360,
        432,
        449,
        483,
        180,
        456,
        465,
        25,
        129,
        4,
        144,
        273,
        78,
        57,
        220,
        54,
        305,
        481,
        215,
        351,
        387,
        96,
        399,
        254,
        133,
        445,
        186,
        370,
        45,
        152,
        263,
        199,
        369,
        105,
        260,
        108,
        150,
        332,
        408,
        453,
        498,
        132,
        95,
        294,
        236,
        379,
        12,
        184,
        0,
        33,
        245,
        256,
        415,
        386,
        439,
        467,
        482,
        242,
        76,
        450,
        391,
        156,
        331,
        347,
        398,
        264,
        148,
        291,
        116,
        20,
        53,
        200,
        270,
        405,
        378,
        345,
        117,
        493,
        281,
        191,
        299,
        151,
        364,
        394,
        266,
        17,
        384,
        451,
        107,
        241,
        330,
        167,
        160,
        77,
        390,
        226,
        103,
        121,
        339,
        417,
        124,
        319,
        271,
        397,
        308,
        113,
        288,
        437,
        430,
        300,
        446,
        469,
        165,
        170,
        16,
        19,
        396,
        412,
        463,
        2,
        149,
        314,
        158,
        258,
        324,
        428,
        13,
        127,
        207,
        320,
        342,
        287,
        201,
        315,
        444,
        114,
        392,
        488,
        272,
        422,
        303,
        297,
        440,
        393,
        43,
        344,
        421,
        252,
        376,
        302,
        296,
        259,
        411,
        111,
        410,
        357,
        134,
        110,
        67,
        309,
        172,
        37,
        316,
        322,
        472,
        216,
        426,
        34,
        382,
        198,
        267,
        247,
        185,
        81,
        434,
        155,
        84,
        475,
        470
    ],
    "Global Optimum": 0,
    "Algorithm": "Genetic algorithm",
    "Parameters": {
        "population": 30,
        "offspring": 30,
        "mutation probability": 0.002,
        "crossover probability": 0.9
    },
    "Fitness": 541023,
    "Solution": [
        284,
        244,
        109,
        261,
        183,
        102,
        239,
        161,
        336,
        176,
        146,
        47,
        448,
        62,
        395,
        120,
        321,
        365,
        28,
        190,
        374,
        217,
        35,
        90,
        253,
        232,
        230,
        423,
        235,
        79,
        375,
        492,
        38,
        353,
        212,
        101,
        142,
        21,
        276,
        74,
        99,
        209,
        23,
        447,
        312,
        126,
        474,
        66,
        341,
        29,
        221,
        295,
        171,
        51,
        406,
        307,
        59,
        6,
        380,
        404,
        334,
        429,
        187,
        333,
        188,
        197,
        293,
        289,
        275,
        327,
        136,
        224,
        178,
        157,
        489,
        250,
        213,
        352,
        140,
        164,
        203,
        435,
        68,
        97,
        317,
        174,
        182,
        80,
        282,
        89,
        219,
        131,
        44,
        460,
        83,
        75,
        251,
        100,
        179,
        427,
        7,
        286,
        46,
        283,
        153,
        218,
        55,
        368,
        479,
        112,
        30,
        177,
        478,
        206,
        285,
        485,
        454,
        163,
        246,
        5,
        459,
        86,
        354,
        60,
        457,
        93,
        274,
        373,
        343,
        8,
        403,
        484,
        363,
        420,
        227,
        73,
        228,
        138,
        139,
        229,
        64,
        442,
        40,
        494,
        1,
        123,
        350,
        223,
        441,
        137,
        85,
        471,
        328,
        461,
        92,
        431,
        443,
        356,
        181,
        225,
        233,
        98,
        15,
        11,
        388,
        458,
        128,
        400,
        436,
        115,
        243,
        41,
        82,
        372,
        70,
        42,
        10,
        413,
        147,
        72,
        385,
        141,
        204,
        248,
        91,
        194,
        462,
        65,
        49,
        71,
        497,
        143,
        418,
        490,
        31,
        477,
        94,
        366,
        362,
        355,
        193,
        464,
        311,
        338,
        476,
        337,
        495,
        210,
        56,
        22,
        32,
        27,
        280,
        298,
        14,
        358,
        18,
        125,
        381,
        166,
        491,
        234,
        119,
        306,
        162,
        9,
        265,
        313,
        389,
        238,
        169,
        211,
        361,
        61,
        58,
        301,
        249,
        237,
        262,
        173,
        325,
        326,
        318,
        135,
        323,
        50,
        205,
        106,
        290,
        26,
        3,
        196,
        145,
        24,
        455,
        269,
        87,
        348,
        222,
        340,
        407,
        433,
        377,
        466,
        175,
        278,
        195,
        346,
        189,
        130,
        168,
        401,
        310,
        240,
        473,
        104,
        202,
        496,
        63,
        292,
        154,
        367,
        52,
        371,
        419,
        424,
        359,
        36,
        409,
        335,
        208,
        499,
        304,
        480,
        438,
        277,
        159,
        329,
        279,
        214,
        268,
        487,
        39,
        48,
        383,
        416,
        231,
        118,
        414,
        468,
        349,
        452,
        425,
        192,
        402,
        255,
        69,
        486,
        122,
        88,
        257,
        360,
        432,
        449,
        483,
        180,
        456,
        465,
        25,
        129,
        4,
        144,
        273,
        78,
        57,
        220,
        54,
        305,
        481,
        215,
        351,
        387,
        96,
        399,
        254,
        133,
        445,
        186,
        370,
        45,
        152,
        263,
        199,
        369,
        105,
        260,
        108,
        150,
        332,
        408,
        453,
        498,
        132,
        95,
        294,
        236,
        379,
        12,
        184,
        0,
        33,
        245,
        256,
        415,
        386,
        439,
        467,
        482,
        242,
        76,
        450,
        391,
        156,
        331,
        347,
        398,
        264,
        148,
        291,
        116,
        20,
        53,
        200,
        270,
        405,
        378,
        345,
        117,
        493,
        281,
        191,
        299,
        151,
        364,
        394,
        266,
        17,
        384,
        451,
        107,
        241,
        330,
        167,
        160,
        77,
        390,
        226,
        103,
        121,
        339,
        417,
        124,
        319,
        271,
        397,
        308,
        113,
        288,
        437,
        430,
        300,
        446,
        469,
        165,
        170,
        16,
        19,
        396,
        412,
        463,
        2,
        149,
        314,
        158,
        258,
        324,
        428,
        13,
        127,
        207,
        320,
        342,
        287,
        201,
        315,
        444,
        114,
        392,
        488,
        272,
        422,
        303,
        297,
        440,
        393,
        43,
        344,
        421,
        252,
        376,
        302,
        296,
        259,
        411,
        111,
        410,
        357,
        134,
        110,
        67,
        309,
        172,
        37,
        316,
        322,
        472,
        216,
        426,
        34,
        382,
        198,
        267,
        247,
        185,
        81,
        434,
        155,
        84,
        475,
        470
    ],
    "Nb of functions evaluations": 400020,
    "Computational time in seconds": 1794.8074383735657,
    "Stopping criterion in evaluations": 400000
}